
  20    0


   0  10 2 3 4 5 7 15 16 17 18 19 
   5   4 14 10 9 6 
   3   3 13 12 8 
   4   3 10 9 8 
   8   2 11 9 
   8   1 8 
   7   1 8 
   9   1 20
   2   1 20
   5   1 20
   5   1 20
   1   1 20
   5   1 20
  10   1 20
   9   1 20
   1   1 20
  10   1 20
   4   1 20
   1   1 20
   0   0 
